Version identifier: 22.1.0.0 | 2022-03-09 | 1a383f8ce
CPXPARAM_Threads                                 1
CPXPARAM_MIP_Strategy_VariableSelect             3
CPXPARAM_TimeLimit                               600
Tried aggregator 1 time.
MIP Presolve eliminated 3 rows and 648 columns.
Reduced MIP has 1521 rows, 4536 columns, and 20428 nonzeros.
Reduced MIP has 3457 binaries, 1079 generals, 0 SOSs, and 0 indicators.
Presolve time = 0.01 sec. (9.50 ticks)
Found incumbent of value 4.194596 after 0.03 sec. (23.75 ticks)
Probing fixed 0 vars, tightened 3 bounds.
Probing time = 0.01 sec. (4.18 ticks)
Cover probing fixed 0 vars, tightened 1 bounds.
Tried aggregator 1 time.
Detecting symmetries...
Reduced MIP has 1521 rows, 4536 columns, and 20428 nonzeros.
Reduced MIP has 3459 binaries, 1077 generals, 0 SOSs, and 0 indicators.
Presolve time = 0.01 sec. (10.99 ticks)
Probing time = 0.00 sec. (3.04 ticks)
Clique table members: 275.
MIP emphasis: balance optimality and feasibility.
MIP search method: dynamic search.
Parallel mode: none, using 1 thread.
Root relaxation solution time = 0.03 sec. (21.35 ticks)

        Nodes                                         Cuts/
   Node  Left     Objective  IInf  Best Integer    Best Bound    ItCnt     Gap

*     0+    0                            4.1946        0.0000           100.00%
      0     0        0.0000   303        4.1946        0.0000      542  100.00%
*     0+    0                            0.0000        0.0000             0.00%
      0     0        cutoff              0.0000        0.0000      542    0.00%
Elapsed time = 0.28 sec. (217.68 ticks, tree = 0.01 MB, solutions = 2)

Root node processing (before b&c):
  Real time             =    0.28 sec. (217.87 ticks)
Sequential b&c:
  Real time             =    0.00 sec. (0.00 ticks)
                          ------------
Total (root+branch&cut) =    0.28 sec. (217.87 ticks)
Violation-free sequence bound:	216
Unscheduled:	0
Status:	Optimal
Time:	0.29
Sequence:
	11
	9
	2
	4
	1
	0
	11
	4
	0
	4
	1
	0
	11
	9
	0
	5
	9
	0
	9
	11
	4
	0
	4
	1
	0
	9
	3
	0
	5
	9
	0
	5
	4
	0
	11
	4
	4
	0
	4
	4
	0
	4
	4
	0
	4
	4
	3
	4
	0
	5
	9
	9
	11
	0
	4
	5
	0
	9
	11
	9
	0
	6
	9
	0
	4
	1
	0
	1
	4
	1
	0
	11
	9
	1
	9
	1
	9
	4
	11
	2
	9
	9
	0
	4
	11
	4
	0
	4
	1
	0
	11
	4
	9
	5
	9
	9
	5
	9
	11
	9
	5
	9
	5
	9
	9
	11
	9
	4
	4
	9
	4
	4
	9
	4
	4
	3
	4
	9
	9
	9
	4
	3
	9
	4
	0
	4
	9
	4
	3
	9
	4
	5
	9
	4
	4
	3
	9
	9
	9
	4
	4
	9
	4
	3
	4
	9
	9
	4
	1
	0
	3
	4
	0
	5
	9
	4
	11
	9
	9
	9
	2
	9
	5
	0
	3
	9
	9
	1
	9
	5
	0
	5
	9
	5
	0
	3
	9
	5
	0
	5
	4
	9
	3
	0
	1
	4
	6
	0
	11
	9
	9
	5
	0
	5
	9
	11
	4
	4
	9
	0
	4
	4
	3
	4
	4
	2
	4
	4
	0
	4
	3
	9
	1
	4
	4
	0
Violation-free sequence:
	11
	9
	2
	4
	1
	0
	11
	4
	0
	4
	1
	0
	11
	9
	0
	5
	9
	0
	9
	11
	4
	0
	4
	1
	0
	9
	3
	0
	5
	9
	0
	5
	4
	0
	11
	4
	4
	0
	4
	4
	0
	4
	4
	0
	4
	4
	3
	4
	0
	5
	9
	9
	11
	0
	4
	5
	0
	9
	11
	9
	0
	6
	9
	0
	4
	1
	0
	1
	4
	1
	0
	11
	9
	1
	9
	1
	9
	4
	11
	2
	9
	9
	0
	4
	11
	4
	0
	4
	1
	0
	11
	4
	9
	5
	9
	9
	5
	9
	11
	9
	5
	9
	5
	9
	9
	11
	9
	4
	4
	9
	4
	4
	9
	4
	4
	3
	4
	9
	9
	9
	4
	3
	9
	4
	0
	4
	9
	4
	3
	9
	4
	5
	9
	4
	4
	3
	9
	9
	9
	4
	4
	9
	4
	3
	4
	9
	9
	4
	1
	0
	3
	4
	0
	5
	9
	4
	11
	9
	9
	9
	2
	9
	5
	0
	3
	9
	9
	1
	9
	5
	0
	5
	9
	5
	0
	3
	9
	5
	0
	5
	4
	9
	3
	0
	1
	4
	6
	0
	11
	9
	9
	5
	0
	5
	9
	11
	4
	4
	9
	0
	4
	4
	3
	4
	4
	2
	4
	4
	0
	4
	3
	9
	1
	4
	4
	0
